# Solution for model TSP0
# Objective value = 2.7822137165350914e+03
C0 0
C1 0
C2 1
C3 0
C4 0
C5 0
C6 0
C7 0
C8 0
C9 1
C10 0
C11 0
C12 0
C13 0
C14 0
C15 0
C16 0
C17 1
C18 1
C19 0
C20 0
C21 0
C22 0
C23 0
C24 1
C25 1
C26 0
C27 0
C28 0
C29 0
C30 0
C31 0
C32 0
C33 0
C34 0
C35 0
C36 1
C37 0
C38 1
C39 0
C40 0
C41 0
C42 1
C43 0
C44 0
C45 0
C46 0
C47 0
C48 0
C49 0
C50 1
C51 1
C52 0
C53 0
C54 0
C55 0
C56 0
C57 0
C58 0
C59 0
C60 0
C61 0
C62 1
C63 0
C64 0
C65 0
